solution status: optimal solution found
objective value:                     186608.568520426
d11(0,0)                                            1 	(obj:0)
d11(1,1)                                            1 	(obj:0)
d11(1,2)                                            1 	(obj:0)
d11(1,3)                                            1 	(obj:0)
d11(2,4)                                            1 	(obj:0)
d11(2,5)                                            1 	(obj:0)
d11(2,6)                                            1 	(obj:0)
d11(2,7)                                            1 	(obj:0)
d11(2,8)                                            1 	(obj:0)
d11(2,9)                                            1 	(obj:0)
d11(2,10)                                           1 	(obj:0)
d11(2,11)                                           1 	(obj:0)
d11(3,13)                                           1 	(obj:0)
d11(3,14)                                           1 	(obj:0)
d11(3,15)                                           1 	(obj:0)
d11(3,16)                                           1 	(obj:0)
d11(3,17)                                           1 	(obj:0)
d11(3,18)                                           1 	(obj:0)
d11(3,19)                                           1 	(obj:0)
d11(3,20)                                           1 	(obj:0)
d11(3,22)                                           1 	(obj:0)
d11(3,23)                                           1 	(obj:0)
d11(3,24)                                           1 	(obj:0)
d11(3,25)                                           1 	(obj:0)
d11(3,26)                                           1 	(obj:0)
d11(3,27)                                           1 	(obj:0)
d11(3,28)                                           1 	(obj:0)
d11(3,29)                                           1 	(obj:0)
d11(3,30)                                           1 	(obj:0)
d11(3,31)                                           1 	(obj:0)
d11(3,32)                                           1 	(obj:0)
d11(3,33)                                           1 	(obj:0)
d11(3,34)                                           1 	(obj:0)
d11(3,35)                                           1 	(obj:0)
d11(3,36)                                           1 	(obj:0)
d11(3,37)                                           1 	(obj:0)
d11(3,38)                                           1 	(obj:0)
d11(4,40)                                           1 	(obj:0)
d11(4,41)                                           1 	(obj:0)
d11(4,43)                                           1 	(obj:0)
d11(4,44)                                           1 	(obj:0)
d11(4,46)                                           1 	(obj:0)
d11(4,47)                                           1 	(obj:0)
d11(4,49)                                           1 	(obj:0)
d11(4,50)                                           1 	(obj:0)
d11(4,51)                                           1 	(obj:0)
d11(4,52)                                           1 	(obj:0)
d11(4,53)                                           1 	(obj:0)
d11(4,55)                                           1 	(obj:0)
d11(4,56)                                           1 	(obj:0)
d11(4,58)                                           1 	(obj:0)
d11(4,59)                                           1 	(obj:0)
d11(4,61)                                           1 	(obj:0)
d11(4,62)                                           1 	(obj:0)
d11(4,64)                                           1 	(obj:0)
d11(4,65)                                           1 	(obj:0)
d11(4,67)                                           1 	(obj:0)
d11(4,68)                                           1 	(obj:0)
d11(4,70)                                           1 	(obj:0)
d11(4,71)                                           1 	(obj:0)
d11(4,73)                                           1 	(obj:0)
d11(4,74)                                           1 	(obj:0)
d11(4,76)                                           1 	(obj:0)
d11(4,77)                                           1 	(obj:0)
d11(4,79)                                           1 	(obj:0)
d11(4,80)                                           1 	(obj:0)
d11(4,82)                                           1 	(obj:0)
d11(4,83)                                           1 	(obj:0)
d11(4,85)                                           1 	(obj:0)
d11(4,86)                                           1 	(obj:0)
d11(4,88)                                           1 	(obj:0)
d11(4,89)                                           1 	(obj:0)
d11(4,91)                                           1 	(obj:0)
d11(4,92)                                           1 	(obj:0)
d11(4,94)                                           1 	(obj:0)
d11(4,95)                                           1 	(obj:0)
d11(4,97)                                           1 	(obj:0)
d11(4,98)                                           1 	(obj:0)
d11(4,100)                                          1 	(obj:0)
d11(4,101)                                          1 	(obj:0)
d11(4,103)                                          1 	(obj:0)
d11(4,104)                                          1 	(obj:0)
d11(4,106)                                          1 	(obj:0)
d11(4,107)                                          1 	(obj:0)
d11(4,109)                                          1 	(obj:0)
d11(4,110)                                          1 	(obj:0)
d11(4,112)                                          1 	(obj:0)
d11(4,113)                                          1 	(obj:0)
d11(4,115)                                          1 	(obj:0)
d11(4,116)                                          1 	(obj:0)
d11(4,118)                                          1 	(obj:0)
d11(4,119)                                          1 	(obj:0)
d21(3,13)                                           1 	(obj:0)
d21(4,40)                                           1 	(obj:0)
d21(4,41)                                           1 	(obj:0)
d21(4,42)                                           1 	(obj:0)
d21(4,43)                                           1 	(obj:0)
d21(4,44)                                           1 	(obj:0)
d21(4,45)                                           1 	(obj:0)
d21(4,46)                                           1 	(obj:0)
d21(4,47)                                           1 	(obj:0)
d21(4,49)                                           1 	(obj:0)
d21(4,50)                                           1 	(obj:0)
d21(4,51)                                           1 	(obj:0)
d21(4,52)                                           1 	(obj:0)
d21(4,53)                                           1 	(obj:0)
d21(4,55)                                           1 	(obj:0)
d21(4,58)                                           1 	(obj:0)
d21(4,59)                                           1 	(obj:0)
d21(4,61)                                           1 	(obj:0)
d21(4,67)                                           1 	(obj:0)
d21(4,68)                                           1 	(obj:0)
d21(4,69)                                           1 	(obj:0)
d21(4,70)                                           1 	(obj:0)
d21(4,71)                                           1 	(obj:0)
d21(4,73)                                           1 	(obj:0)
d21(4,76)                                           1 	(obj:0)
d21(4,77)                                           1 	(obj:0)
d21(4,79)                                           1 	(obj:0)
d21(4,80)                                           1 	(obj:0)
d21(4,82)                                           1 	(obj:0)
d21(4,85)                                           1 	(obj:0)
d21(4,94)                                           1 	(obj:0)
d21(4,95)                                           1 	(obj:0)
d21(4,97)                                           1 	(obj:0)
d21(4,103)                                          1 	(obj:0)
d21(4,106)                                          1 	(obj:0)
STE(1,1)                             10089.4042566666 	(obj:0)
STE(0,0)                                        14175 	(obj:0)
STE(1,2)                             11086.1702599999 	(obj:0)
STE(1,3)                             12303.6224633333 	(obj:0)
STE(2,4)                             6741.18604999996 	(obj:0)
STE(2,5)                             7737.95205333325 	(obj:0)
STE(2,6)                             8955.40425666663 	(obj:0)
STE(2,7)                             7737.95205333325 	(obj:0)
STE(2,8)                             8734.71805666654 	(obj:0)
STE(2,9)                             9952.17025999992 	(obj:0)
STE(2,10)                            8955.40425666663 	(obj:0)
STE(2,11)                            9952.17025999992 	(obj:0)
STE(2,12)                            11169.6224633333 	(obj:0)
STE(3,13)                            3392.96784333328 	(obj:0)
STE(3,14)                            4389.73384666657 	(obj:0)
STE(3,15)                            5607.18604999994 	(obj:0)
STE(3,16)                            4389.73384666657 	(obj:0)
STE(3,17)                            5386.49984999986 	(obj:0)
STE(3,18)                            6603.95205333325 	(obj:0)
STE(3,19)                            5607.18604999995 	(obj:0)
STE(3,20)                            6603.95205333324 	(obj:0)
STE(3,21)                            7821.40425666663 	(obj:0)
STE(3,22)                            4389.73384666657 	(obj:0)
STE(3,23)                            5386.49985001714 	(obj:0)
STE(3,24)                            6603.95205333325 	(obj:0)
STE(3,25)                            5386.49984999986 	(obj:0)
STE(3,26)                            6383.26585333315 	(obj:0)
STE(3,27)                            7600.71805666653 	(obj:0)
STE(3,28)                            6603.95205333324 	(obj:0)
STE(3,29)                            7600.71805666653 	(obj:0)
STE(3,30)                            8818.17025999992 	(obj:0)
STE(3,31)                            5607.18604999995 	(obj:0)
STE(3,32)                            6603.95205333324 	(obj:0)
STE(3,33)                            7821.40425666661 	(obj:0)
STE(3,34)                            6603.95205333324 	(obj:0)
STE(3,35)                            7600.71805666656 	(obj:0)
STE(3,36)                            8818.17025999992 	(obj:0)
STE(3,37)                            7821.40425666661 	(obj:0)
STE(3,38)                             8818.1702599999 	(obj:0)
STE(3,39)                            10035.6224633333 	(obj:0)
STE(4,40)                            44.7496366667367 	(obj:0)
STE(4,41)                            1041.51564000003 	(obj:0)
STE(4,42)                            2258.96784333328 	(obj:0)
STE(4,43)                            1041.51564000003 	(obj:0)
STE(4,44)                            2038.28164333332 	(obj:0)
STE(4,45)                            3255.73384666657 	(obj:0)
STE(4,46)                            2258.96784333341 	(obj:0)
STE(4,47)                             3255.7338466667 	(obj:0)
STE(4,48)                            4473.18604999994 	(obj:0)
STE(4,49)                            1041.51564000003 	(obj:0)
STE(4,50)                            2038.28164333332 	(obj:0)
STE(4,51)                            3255.73384666657 	(obj:0)
STE(4,52)                            2038.28164333332 	(obj:0)
STE(4,53)                            3035.04764666661 	(obj:0)
STE(4,54)                            4252.49984999986 	(obj:0)
STE(4,55)                            3255.73384666671 	(obj:0)
STE(4,56)                                  4252.49985 	(obj:0)
STE(4,57)                            5469.95205333325 	(obj:0)
STE(4,58)                            2258.96784333341 	(obj:0)
STE(4,59)                             3255.7338466667 	(obj:0)
STE(4,60)                            4473.18604999995 	(obj:0)
STE(4,61)                             3255.7338466667 	(obj:0)
STE(4,62)                            4252.49984999999 	(obj:0)
STE(4,63)                            5469.95205333324 	(obj:0)
STE(4,64)                            4473.18605000009 	(obj:0)
STE(4,65)                            5469.95205333338 	(obj:0)
STE(4,66)                            6687.40425666663 	(obj:0)
STE(4,67)                            1041.51564000003 	(obj:0)
STE(4,68)                            2038.28164333332 	(obj:0)
STE(4,69)                            3255.73384666657 	(obj:0)
STE(4,70)                             2038.2816433506 	(obj:0)
STE(4,71)                            3035.04764668389 	(obj:0)
STE(4,72)                            4252.49985001714 	(obj:0)
STE(4,73)                            3255.73384666671 	(obj:0)
STE(4,74)                                  4252.49985 	(obj:0)
STE(4,75)                            5469.95205333325 	(obj:0)
STE(4,76)                            2038.28164333332 	(obj:0)
STE(4,77)                            3035.04764666661 	(obj:0)
STE(4,78)                            4252.49984999986 	(obj:0)
STE(4,79)                            3035.04764666661 	(obj:0)
STE(4,80)                             4031.8136499999 	(obj:0)
STE(4,81)                            5249.26585333315 	(obj:0)
STE(4,82)                            4252.49984999999 	(obj:0)
STE(4,83)                            5249.26585333328 	(obj:0)
STE(4,84)                            6466.71805666653 	(obj:0)
STE(4,85)                             3255.7338466667 	(obj:0)
STE(4,86)                            4252.49984999999 	(obj:0)
STE(4,87)                            5469.95205333324 	(obj:0)
STE(4,88)                            4252.49984999999 	(obj:0)
STE(4,89)                            5249.26585333328 	(obj:0)
STE(4,90)                            6466.71805666653 	(obj:0)
STE(4,91)                            5469.95205333338 	(obj:0)
STE(4,92)                            6466.71805666667 	(obj:0)
STE(4,93)                            7684.17025999992 	(obj:0)
STE(4,94)                            2258.96784333341 	(obj:0)
STE(4,95)                             3255.7338466667 	(obj:0)
STE(4,96)                            4473.18604999995 	(obj:0)
STE(4,97)                             3255.7338466667 	(obj:0)
STE(4,98)                            4252.49984999999 	(obj:0)
STE(4,99)                            5469.95205333324 	(obj:0)
STE(4,100)                           4473.18605000008 	(obj:0)
STE(4,101)                           5469.95205333337 	(obj:0)
STE(4,102)                           6687.40425666661 	(obj:0)
STE(4,103)                            3255.7338466667 	(obj:0)
STE(4,104)                           4252.49984999999 	(obj:0)
STE(4,105)                           5469.95205333324 	(obj:0)
STE(4,106)                           4252.49985000002 	(obj:0)
STE(4,107)                           5249.26585333331 	(obj:0)
STE(4,108)                           6466.71805666656 	(obj:0)
STE(4,109)                           5469.95205333338 	(obj:0)
STE(4,110)                           6466.71805666667 	(obj:0)
STE(4,111)                           7684.17025999992 	(obj:0)
STE(4,112)                           4473.18605000007 	(obj:0)
STE(4,113)                           5469.95205333337 	(obj:0)
STE(4,114)                           6687.40425666661 	(obj:0)
STE(4,115)                           5469.95205333337 	(obj:0)
STE(4,116)                           6466.71805666666 	(obj:0)
STE(4,117)                            7684.1702599999 	(obj:0)
STE(4,118)                           6687.40425666676 	(obj:0)
STE(4,119)                           7684.17026000005 	(obj:0)
STE(4,120)                            8901.6224633333 	(obj:0)
y1(4,100)                            1992.79638599989 	(obj:0)
y1(4,101)                            1095.70698299992 	(obj:0)
y1(4,103)                            1992.79638599989 	(obj:0)
y1(4,104)                            1095.70698299992 	(obj:0)
y1(4,106)                            1992.79638599989 	(obj:0)
y1(4,107)                            1095.70698299992 	(obj:0)
y1(4,109)                            1992.79638599989 	(obj:0)
y1(4,110)                            1095.70698299992 	(obj:0)
y1(4,112)                            1992.79638599989 	(obj:0)
y1(4,113)                            1095.70698299992 	(obj:0)
y1(4,115)                            1992.79638599989 	(obj:0)
y1(4,116)                            1095.70698299992 	(obj:0)
y1(4,118)                            1992.79638599989 	(obj:0)
y1(4,119)                            1095.70698299992 	(obj:0)
AVE(3)                                3399.3204933139 	(obj:0)
AVE(4)                               3353.21046544222 	(obj:0)
WG(3)                                 3399.3204933139 	(obj:10)
WG(4)                                3353.21046544222 	(obj:10)
BG(1)                                5173.10180204084 	(obj:10)
BG(2)                                4495.91834999995 	(obj:10)
BG(3)                                 1096.5978566861 	(obj:10)
BG(4)                                1142.70788455769 	(obj:10)
WB(1)                                3134.60043707458 	(obj:0)
AVE(1)                               3134.60043707458 	(obj:0)
WB(2)                                3326.45170866638 	(obj:0)
AVE(2)                               3326.45170866643 	(obj:0)
y1(1,1)                              2656.43616900004 	(obj:0)
y1(1,2)                              1759.34676600007 	(obj:0)
y1(1,3)                              663.639783000033 	(obj:0)
y1(2,4)                                   1992.796386 	(obj:0)
y1(2,5)                              1095.70698300004 	(obj:0)
y1(2,7)                                   1992.796386 	(obj:0)
y1(2,8)                              1095.70698300004 	(obj:0)
y1(2,10)                                  1992.796386 	(obj:0)
y1(2,11)                             1095.70698300004 	(obj:0)
y1(3,13)                             1992.79638600001 	(obj:0)
y1(3,14)                             1095.70698300005 	(obj:0)
y1(3,16)                             1992.79638600001 	(obj:0)
y1(3,17)                             1095.70698300005 	(obj:0)
y1(3,19)                             1992.79638600001 	(obj:0)
y1(3,20)                             1095.70698300005 	(obj:0)
y1(3,22)                             1992.79638600001 	(obj:0)
y1(3,23)                              1095.7069829845 	(obj:0)
y1(3,25)                             1992.79638600001 	(obj:0)
y1(3,26)                             1095.70698300005 	(obj:0)
y1(3,28)                             1992.79638600001 	(obj:0)
y1(3,29)                             1095.70698300005 	(obj:0)
y1(3,31)                             1992.79638600001 	(obj:0)
y1(3,32)                             1095.70698300005 	(obj:0)
y1(3,34)                             1992.79638600001 	(obj:0)
y1(3,35)                             1095.70698300002 	(obj:0)
y1(3,37)                             1992.79638600001 	(obj:0)
y1(3,38)                             1095.70698300005 	(obj:0)
y1(4,40)                             1992.79638599989 	(obj:0)
y1(4,41)                             1095.70698299992 	(obj:0)
y1(4,43)                             1992.79638599989 	(obj:0)
y1(4,44)                             1095.70698299992 	(obj:0)
y1(4,46)                             1992.79638599989 	(obj:0)
y1(4,47)                             1095.70698299992 	(obj:0)
y1(4,49)                             1992.79638599989 	(obj:0)
y1(4,50)                             1095.70698299992 	(obj:0)
y1(4,52)                             1992.79638599989 	(obj:0)
y1(4,53)                             1095.70698299992 	(obj:0)
y1(4,55)                             1992.79638599989 	(obj:0)
y1(4,56)                             1095.70698299992 	(obj:0)
y1(4,58)                             1992.79638599989 	(obj:0)
y1(4,59)                             1095.70698299992 	(obj:0)
y1(4,61)                             1992.79638599989 	(obj:0)
y1(4,62)                             1095.70698299992 	(obj:0)
y1(4,64)                             1992.79638599989 	(obj:0)
y1(4,65)                             1095.70698299992 	(obj:0)
y1(4,67)                             1992.79638599989 	(obj:0)
y1(4,68)                             1095.70698299992 	(obj:0)
y1(4,70)                             1992.79638599989 	(obj:0)
y1(4,71)                             1095.70698299992 	(obj:0)
y1(4,73)                             1992.79638599989 	(obj:0)
y1(4,74)                             1095.70698299992 	(obj:0)
y1(4,76)                             1992.79638599989 	(obj:0)
y1(4,77)                             1095.70698299992 	(obj:0)
y1(4,79)                             1992.79638599989 	(obj:0)
y1(4,80)                             1095.70698299992 	(obj:0)
y1(4,82)                             1992.79638599989 	(obj:0)
y1(4,83)                             1095.70698299992 	(obj:0)
y1(4,85)                             1992.79638599989 	(obj:0)
y1(4,86)                             1095.70698299992 	(obj:0)
y1(4,88)                             1992.79638599989 	(obj:0)
y1(4,89)                             1095.70698299992 	(obj:0)
y1(4,91)                             1992.79638599989 	(obj:0)
y1(4,92)                             1095.70698299992 	(obj:0)
y1(4,94)                             1992.79638599989 	(obj:0)
y1(4,95)                             1095.70698299992 	(obj:0)
y1(4,97)                             1992.79638599989 	(obj:0)
y1(4,98)                             1095.70698299992 	(obj:0)
